
(set-logic ALL) 

(declare-datatype MyList ((Nil) (Cons (head Real) (tail MyList)) )) 
(declare-fun l0 () MyList) 
(declare-fun l1 () MyList) 
(declare-fun l2 () MyList) 
(declare-fun l3 () MyList) 
(declare-fun i0 () Real) 
(declare-fun i1 () Real) 
(assert (and (= l1 Nil) (= l1 Nil) (is-Nil Nil)) )
(assert (or (= l1 l1) (= l2 Nil)) )
(assert (is-Nil Nil) )
(assert (not (= l3 l1)) )
(assert (and (= l0 Nil) (= l3 Nil)) )
(assert (is-Cons l1) )
(assert (= l1 Nil) )
(assert (not (= l0 l0)) )
(check-sat)
